0001 16
0002 11
0003 21
0004 6
0005 13
0006 1
0007 5
0008 26
0009 24
0010 20
0011 9
0012 12
0013 19
0014 26
0015 30
0016 3
0017 14
0018 15
0019 2
0020 18
0021 24
0022 28
0023 18
0024 8
0025 23
0026 19
0027 2
0028 2
0029 10
0030 12
0031 2
0032 10
0033 21
0034 2
0035 2
0036 16
0037 12
0038 27
0039 1
0040 15
0041 27
0042 12
0043 2
0044 27
0045 27
0046 13
0047 22
0048 9
0049 20
0050 12
0051 15
0052 19
0053 31
0054 9
0055 23
0056 23
0057 22
0058 6
0059 17
0060 11
0061 24
0062 3
0063 27
0064 1
0065 4
0066 16
0067 18
0068 31
0069 3
0070 1
0071 25
0072 31
0073 11
0074 18
0075 24
0076 10
0077 26
0078 15
0079 12
0080 30
0081 18
0082 28
0083 5
0084 7
0085 10
0086 7
0087 8
0088 29
0089 31
0090 11
0091 14
0092 5
0093 22
0094 4
0095 26
0096 28
0097 20
0098 14
0099 3
0100 8
0101 5
0102 10
0103 14
0104 24
0105 20
0106 2
0107 12
0108 23
0109 8
0110 21
0111 13
0112 5
0113 7
0114 26
0115 9
0116 29
0117 22
0118 4
0119 19
0120 27
0121 2
0122 13
0123 23
0124 4
0125 28
0126 24
0127 32
0128 16
0129 28
0130 4
0131 27
0132 1
0133 4
0134 3
0135 32
0136 29
0137 12
0138 26
0139 24
0140 5
0141 18
0142 32
0143 3
0144 6
0145 3
0146 7
0147 9
0148 22
0149 26
0150 5
0151 11
0152 28
0153 9
0154 13
0155 11
0156 30
0157 4
0158 27
0159 3
0160 10
0161 8
0162 18
0163 12
0164 3
0165 13
0166 5
0167 3
0168 28
0169 8
0170 32
0171 12
0172 16
0173 12
0174 3
0175 3
0176 5
0177 13
0178 2
0179 5
0180 1
0181 30
0182 13
0183 28
0184 12
0185 14
0186 7
0187 30
0188 26
0189 8
0190 31
0191 10
0192 20
0193 4
0194 17
0195 28
0196 15
0197 25
0198 3
0199 24
0200 19
0201 13
0202 2
0203 28
0204 17
0205 17
0206 30
0207 9
0208 17
0209 6
0210 11
0211 27
0212 11
0213 8
0214 6
0215 27
0216 15
0217 19
0218 14
0219 4
0220 20
0221 8
0222 30
0223 29
0224 1
0225 22
0226 10
0227 2
0228 28
0229 9
0230 23
0231 19
0232 12
0233 19
0234 16
0235 7
0236 29
0237 13
0238 25
0239 6
0240 16
0241 22
0242 15
0243 9
0244 10
0245 31
0246 27
0247 12
0248 7
0249 19
0250 3
0251 28
0252 7
0253 1
0254 32
0255 24
0256 32
0257 24
0258 32
0259 24
0260 32
0261 32
0262 3
0263 11
0264 16
0265 10
0266 14
0267 20
0268 21
0269 17
0270 30
0271 27
0272 28
0273 19
0274 26
0275 12
0276 29
0277 21
0278 6
0279 8
0280 11
0281 3
0282 32
0283 1
0284 28
0285 18
0286 4
0287 1
0288 18
0289 18
0290 21
0291 31
0292 22
0293 16
0294 19
0295 22
0296 19
0297 26
0298 29
0299 21
0300 25
0301 9
0302 18
0303 31
0304 7
0305 14
0306 28
0307 17
0308 14
0309 24
0310 1
0311 8
0312 27
0313 29
0314 5
0315 16
0316 32
0317 31
0318 32
0319 8
0320 4
0321 21
0322 24
0323 31
0324 13
0325 1
0326 27
0327 20
0328 1
0329 6
0330 6
0331 1
0332 1
0333 6
0334 25
0335 27
0336 30
0337 2
0338 8
0339 28
0340 4
0341 32
0342 4
0343 16
0344 15
0345 1
0346 21
0347 6
0348 29
0349 22
0350 19
0351 31
0352 9
0353 15
0354 4
0355 30
0356 14
0357 12
0358 23
0359 8
0360 19
0361 21
0362 24
0363 24
0364 2
0365 10
0366 4
0367 28
0368 19
0369 17
0370 13
0371 5
0372 16
0373 25
0374 18
0375 7
0376 8
0377 14
0378 26
0379 15
0380 28
0381 4
0382 11
0383 15
0384 5
0385 23
0386 3
0387 13
0388 28
0389 5
0390 2
0391 7
0392 30
0393 25
0394 13
0395 4
0396 11
0397 12
0398 14
0399 20
0400 28
0401 6
0402 5
0403 28
0404 6
0405 10
0406 3
0407 8
0408 20
0409 21
0410 22
0411 16
0412 14
0413 30
0414 8
0415 4
0416 11
0417 5
0418 7
0419 10
0420 5
0421 28
0422 27
0423 26
0424 23
0425 19
0426 10
0427 23
0428 8
0429 27
0430 11
0431 22
0432 24
0433 24
0434 1
0435 19
0436 21
0437 15
0438 13
0439 16
0440 29
0441 4
0442 32
0443 5
0444 16
0445 29
0446 6
0447 15
0448 14
0449 28
0450 32
0451 24
0452 22
0453 22
0454 30
0455 3
0456 2
0457 1
0458 26
0459 15
0460 18
0461 27
0462 14
0463 3
0464 16
0465 9
0466 5
0467 25
0468 14
0469 2
0470 6
0471 21
0472 17
0473 12
0474 6
0475 15
0476 6
0477 23
0478 8
0479 19
0480 13
0481 3
0482 23
0483 15
0484 5
0485 18
0486 25
0487 23
0488 10
0489 3
0490 29
0491 26
0492 12
0493 8
0494 28
0495 24
0496 27
0497 31
0498 20
0499 15
0500 7
0501 27
0502 4
0503 16
0504 30
0505 10
0506 24
0507 9
0508 21
0509 22
0510 2
0511 9
0512 20
0513 23
0514 6
0515 24
0516 22
0517 26
0518 26
0519 1
0520 20
0521 23
0522 26
0523 29
0524 9
0525 1
0526 15
0527 15
0528 9
0529 20
0530 22
0531 18
0532 21
0533 26
0534 2
0535 31
0536 13
0537 32
0538 25
0539 29
0540 8
0541 31
0542 18
0543 14
